---------------------------------------------
 4888
 4890
 4888
 4888
 4888
 4888
 4890
 4889
 4891
 4891
 4888
 4889
 4890
 4889
 4890
 4894
 4889
 4888
 4888
 4890
---------------------------------------------
 4888
 4890
 4888
 4888
 4888
 4888
 4890
 4889
 4891
 4891
 4888
 4889
 4890
 4889
 4890
 4894
 4889
 4888
 4888
 4890
---------------------------------------------
 4888
 4890
 4888
 4888
 4888
 4888
 4890
 4889
 4891
 4891
 4888
 4889
 4890
 4889
 4890
 4894
 4889
 4888
 4888
 4890
97786
